(set-info :smt-lib-version 2.6)
(set-logic UF)
(set-info :source |Benchmarks from the paper: "Extending Sledgehammer with SMT Solvers" by Jasmin Blanchette, Sascha Bohme, and Lawrence C. Paulson, CADE 2011.  Translated to SMT2 by Andrew Reynolds and Morgan Deters.|)
(set-info :category "industrial")
(set-info :status unknown)
(declare-sort S1 0)
(declare-sort S2 0)
(declare-sort S3 0)
(declare-sort S4 0)
(declare-sort S5 0)
(declare-sort S6 0)
(declare-sort S7 0)
(declare-sort S8 0)
(declare-sort S9 0)
(declare-sort S10 0)
(declare-sort S11 0)
(declare-sort S12 0)
(declare-sort S13 0)
(declare-sort S14 0)
(declare-sort S15 0)
(declare-sort S16 0)
(declare-sort S17 0)
(declare-fun f1 () S1)
(declare-fun f2 () S1)
(declare-fun f3 (S2) S1)
(declare-fun f4 (S3 S4) S2)
(declare-fun f5 (S5 S2) S3)
(declare-fun f6 () S5)
(declare-fun f7 () S2)
(declare-fun f8 () S4)
(declare-fun f9 (S6 S2) S2)
(declare-fun f10 () S6)
(declare-fun f11 (S7 S2) S5)
(declare-fun f12 () S7)
(declare-fun f13 (S2 S2) S1)
(declare-fun f14 (S8 S2) S6)
(declare-fun f15 () S8)
(declare-fun f16 (S9 S2 S10) S1)
(declare-fun f17 (S11 S10) S9)
(declare-fun f18 (S12 S4) S11)
(declare-fun f19 (S13 S9) S12)
(declare-fun f20 () S13)
(declare-fun f21 (S14 S4) S5)
(declare-fun f22 () S14)
(declare-fun f23 (S15 S4) S4)
(declare-fun f24 () S15)
(declare-fun f25 (S9 S4) S10)
(declare-fun f26 () S4)
(declare-fun f27 (S16 S10) S10)
(declare-fun f28 (S17 S10) S16)
(declare-fun f29 () S17)
(assert (not (= f1 f2)))
(assert (not (= (f3 (f4 (f5 f6 f7) f8)) f1)))
(assert (= (f3 f7) f1))
(assert (forall ((?v0 S2)) (=> (= (f3 ?v0) f1) (= (f3 (f9 f10 ?v0)) f1))))
(assert (forall ((?v0 S2) (?v1 S4) (?v2 S2)) (= (f4 (f5 (f11 f12 (f4 (f5 f6 ?v0) ?v1)) ?v2) ?v1) ?v0)))
(assert (forall ((?v0 S2) (?v1 S2) (?v2 S4)) (=> (= (f13 ?v0 ?v1) f1) (= (f13 (f4 (f5 f6 ?v0) ?v2) (f4 (f5 f6 ?v1) ?v2)) f1))))
(assert (forall ((?v0 S2) (?v1 S2) (?v2 S4)) (= (f4 (f5 f6 (f9 (f14 f15 ?v0) ?v1)) ?v2) (f9 (f14 f15 (f4 (f5 f6 ?v0) ?v2)) (f4 (f5 f6 ?v1) ?v2)))))
(assert (forall ((?v0 S9) (?v1 S2) (?v2 S10) (?v3 S4) (?v4 S10)) (=> (= (f16 ?v0 ?v1 ?v2) f1) (= (f16 (f17 (f18 (f19 f20 ?v0) ?v3) ?v4) (f4 (f5 f6 ?v1) ?v3) ?v2) f1))))
(assert (forall ((?v0 S4) (?v1 S2) (?v2 S4)) (= (f4 (f5 (f21 f22 (f23 f24 ?v0)) ?v1) ?v2) (f4 (f5 f6 (f4 (f5 (f21 f22 ?v0) ?v1) ?v2)) ?v2))))
(assert (forall ((?v0 S2) (?v1 S2) (?v2 S2)) (=> (= (f13 ?v0 ?v1) f1) (= (f13 (f9 (f14 f15 ?v0) ?v2) (f9 (f14 f15 ?v1) ?v2)) f1))))
(assert (forall ((?v0 S2) (?v1 S2) (?v2 S2)) (let ((?v_0 (f14 f15 ?v2))) (=> (= (f13 ?v0 ?v1) f1) (= (f13 (f9 ?v_0 ?v0) (f9 ?v_0 ?v1)) f1)))))
(assert (forall ((?v0 S2) (?v1 S2)) (=> (= (f13 ?v0 ?v1) f1) (= (f13 (f9 f10 ?v0) (f9 f10 ?v1)) f1))))
(assert (forall ((?v0 S2) (?v1 S2) (?v2 S2)) (not (= (f9 f10 ?v0) (f9 (f14 f15 ?v1) ?v2)))))
(assert (forall ((?v0 S2) (?v1 S2) (?v2 S2)) (not (= (f9 (f14 f15 ?v0) ?v1) (f9 f10 ?v2)))))
(assert (forall ((?v0 S2) (?v1 S2)) (= (= (f9 f10 ?v0) (f9 f10 ?v1)) (= ?v0 ?v1))))
(assert (forall ((?v0 S2) (?v1 S2) (?v2 S2) (?v3 S2)) (= (= (f9 (f14 f15 ?v0) ?v1) (f9 (f14 f15 ?v2) ?v3)) (and (= ?v0 ?v2) (= ?v1 ?v3)))))
(assert (forall ((?v0 S4) (?v1 S2) (?v2 S2) (?v3 S4)) (let ((?v_0 (f21 f22 ?v0))) (= (f4 (f5 ?v_0 (f9 (f14 f15 ?v1) ?v2)) ?v3) (f9 (f14 f15 (f4 (f5 ?v_0 ?v1) ?v3)) (f4 (f5 ?v_0 ?v2) ?v3))))))
(assert (forall ((?v0 S2) (?v1 S2) (?v2 S2) (?v3 S4)) (= (f4 (f5 (f11 f12 (f9 (f14 f15 ?v0) ?v1)) ?v2) ?v3) (f9 (f14 f15 (f4 (f5 (f11 f12 ?v0) ?v2) ?v3)) (f4 (f5 (f11 f12 ?v1) ?v2) ?v3)))))
(assert (forall ((?v0 S2) (?v1 S2) (?v2 S2) (?v3 S4)) (=> (= (f13 ?v0 ?v1) f1) (= (f13 (f4 (f5 (f11 f12 ?v0) ?v2) ?v3) (f4 (f5 (f11 f12 ?v1) ?v2) ?v3)) f1))))
(assert (forall ((?v0 S4) (?v1 S4) (?v2 S9) (?v3 S10)) (=> (= ?v0 ?v1) (= (f25 (f17 (f18 (f19 f20 ?v2) ?v0) ?v3) ?v1) ?v3))))
(assert (forall ((?v0 S9) (?v1 S2) (?v2 S10) (?v3 S2)) (=> (= (f16 ?v0 ?v1 ?v2) f1) (=> (= (f13 ?v1 ?v3) f1) (= (f16 ?v0 ?v3 ?v2) f1)))))
(assert (forall ((?v0 S9) (?v1 S2) (?v2 S10) (?v3 S9) (?v4 S2) (?v5 S10) (?v6 S4)) (=> (= (f16 ?v0 ?v1 ?v2) f1) (=> (= (f16 ?v3 ?v4 ?v5) f1) (=> (= ?v0 (f17 (f18 (f19 f20 ?v3) ?v6) ?v5)) (= (f16 ?v3 (f4 (f5 (f11 f12 ?v1) ?v4) ?v6) ?v2) f1))))))
(assert (forall ((?v0 S2) (?v1 S2)) (=> (= (f13 (f9 f10 ?v0) ?v1) f1) (=> (forall ((?v2 S2)) (=> (= ?v1 (f9 f10 ?v2)) (=> (= (f13 ?v0 ?v2) f1) false))) false))))
(assert (forall ((?v0 S2) (?v1 S2)) (= (f13 (f9 (f14 f15 (f9 f10 ?v0)) ?v1) (f4 (f5 (f11 f12 ?v0) ?v1) f26)) f1)))
(assert (forall ((?v0 S9) (?v1 S2) (?v2 S10) (?v3 S10) (?v4 S2)) (=> (= (f16 ?v0 ?v1 (f27 (f28 f29 ?v2) ?v3)) f1) (=> (= (f16 ?v0 ?v4 ?v2) f1) (= (f16 ?v0 (f9 (f14 f15 ?v1) ?v4) ?v3) f1)))))
(assert (forall ((?v0 S4)) (not (= ?v0 (f23 f24 ?v0)))))
(assert (forall ((?v0 S4)) (not (= (f23 f24 ?v0) ?v0))))
(assert (forall ((?v0 S4) (?v1 S4)) (= (= (f23 f24 ?v0) (f23 f24 ?v1)) (= ?v0 ?v1))))
(assert (forall ((?v0 S4) (?v1 S4)) (=> (= (f23 f24 ?v0) (f23 f24 ?v1)) (= ?v0 ?v1))))
(assert (forall ((?v0 S9) (?v1 S2) (?v2 S10)) (=> (= (f16 ?v0 (f9 f10 ?v1) ?v2) f1) (=> (forall ((?v3 S10) (?v4 S10)) (=> (= (f16 (f17 (f18 (f19 f20 ?v0) f26) ?v3) ?v1 ?v4) f1) false)) false))))
(assert (forall ((?v0 S9) (?v1 S10) (?v2 S2) (?v3 S10)) (=> (= (f16 (f17 (f18 (f19 f20 ?v0) f26) ?v1) ?v2 ?v3) f1) (= (f16 ?v0 (f9 f10 ?v2) (f27 (f28 f29 ?v1) ?v3)) f1))))
(assert (forall ((?v0 S10) (?v1 S10) (?v2 S10) (?v3 S10)) (= (= (f27 (f28 f29 ?v0) ?v1) (f27 (f28 f29 ?v2) ?v3)) (and (= ?v0 ?v2) (= ?v1 ?v3)))))
(check-sat)
(exit)
